53 40 21 73 22 41 23 67 39 56 75 74 72 4 25 55 54 24 68 80 26 
2 57 15 43 42 87 97 13 58 
52 88 62 19 11 64 49 36 47 48 46 45 17 84 5 60 89 
28 12 76 33 81 78 34 29 79 3 77 50 1 69 27 
18 83 8 82 7 31 70 30 51 9 35 71 65 66 20 32 90 63 10 
94 95 92 98 85 61 16 86 38 14 44 91 100 37 93 59 99 96 6 
